(set-info :source |printed by MathSAT|)
(declare-fun |!{$(in_main#0)<i>}| () Int)
(declare-fun |!{$(in_main#0)<i>}.next| () Int)
(declare-fun |!{$(in_main#0)<idx>}| () Int)
(declare-fun |!{$(in_main#0)<idx>}.next| () Int)
(declare-fun |!{$(in_main#0)<is_sub>}| () Int)
(declare-fun |!{$(in_main#0)<is_sub>}.next| () Int)
(declare-fun |!{$(in_main#0)<k>}| () Int)
(declare-fun |!{$(in_main#0)<k>}.next| () Int)
(declare-fun |!{$(in_main#0)<k#1>}| () Int)
(declare-fun |!{$(in_main#0)<k#1>}.next| () Int)
(declare-fun |!{$(in_main#0)<k#2>}| () Int)
(declare-fun |!{$(in_main#0)<k#2>}.next| () Int)
(declare-fun |!{$(in_main#0)<array.1>}| () (Array Int Int))
(declare-fun |!{$(in_main#0)<array.1>}.next| () (Array Int Int))
(declare-fun |!{$(in_main#0)<subarray.2>}| () (Array Int Int))
(declare-fun |!{$(in_main#0)<subarray.2>}.next| () (Array Int Int))
(declare-fun |!{$(in_main#0)<main.return>}| () Int)
(declare-fun |!{$(in_main#0)<main.return>}.next| () Int)
(declare-fun |!{$(in_main#0)<M>}| () Int)
(declare-fun |!{$(in_main#0)<M>}.next| () Int)
(declare-fun |!{$(in_main#0)<N>}| () Int)
(declare-fun |!{$(in_main#0)<N>}.next| () Int)
(declare-fun |!{$(in_main#0)<$(in___VERIFIER_nondet_int#0)<h#<__VERIFIER_nondet_int.return>>>}| () Int)
(declare-fun |!{$(in_main#0)<$(in___VERIFIER_nondet_int#1)<h#<__VERIFIER_nondet_int.return>>>}| () Int)
(declare-fun |!{$(in_main#0)<$(in___VERIFIER_nondet_int#3)<h#<__VERIFIER_nondet_int.return>>>}| () Int)
(declare-fun |!{$(in_main#0)<$(in___VERIFIER_nondet_int#4)<h#<__VERIFIER_nondet_int.return>>>}| () Int)
(declare-fun !pc () Int)
(declare-fun !pc.next () Int)
(declare-fun |%{$(in_main#0)<i>}#1| () Int)
(declare-fun |%{$(in_main#0)<idx>}#1| () Int)
(declare-fun |%{$(in_main#0)<is_sub>}#1| () Int)
(declare-fun |%{$(in_main#0)<k#1>}#1| () Int)
(declare-fun |%{$(in_main#0)<k#2>}#1| () Int)
(declare-fun |%{$(in_main#0)<array.1>}#1| () (Array Int Int))
(declare-fun |%{$(in_main#0)<subarray.2>}#1| () (Array Int Int))
(declare-fun |%{$(in_main#0)<main.return>}#1| () Int)
(declare-fun |%{$(in_main#0)<is_sub>}#2| () Int)
(declare-fun |%{$(in_main#0)<idx>}#2| () Int)
(define-fun .def_52 () Int (! !pc :next !pc.next))
(define-fun .def_55 () Bool (! (= .def_52 2) :init true))
(define-fun .def_407 () Bool (= .def_52 55))
(define-fun .def_374 () Bool (= !pc.next 75))
(define-fun .def_410 () Bool (and .def_374 .def_407))
(define-fun .def_398 () Bool (= |!{$(in_main#0)<k#1>}.next| 0))
(define-fun .def_10 () Int (! |!{$(in_main#0)<idx>}| :next |!{$(in_main#0)<idx>}.next|))
(define-fun .def_123 () Bool (= .def_10 |!{$(in_main#0)<idx>}.next|))
(define-fun .def_8 () Int (! |!{$(in_main#0)<i>}| :next |!{$(in_main#0)<i>}.next|))
(define-fun .def_121 () Bool (= .def_8 |!{$(in_main#0)<i>}.next|))
(define-fun .def_144 () Bool (and .def_121 .def_123))
(define-fun .def_12 () Int (! |!{$(in_main#0)<is_sub>}| :next |!{$(in_main#0)<is_sub>}.next|))
(define-fun .def_125 () Bool (= .def_12 |!{$(in_main#0)<is_sub>}.next|))
(define-fun .def_145 () Bool (and .def_125 .def_144))
(define-fun .def_14 () Int (! |!{$(in_main#0)<k>}| :next |!{$(in_main#0)<k>}.next|))
(define-fun .def_127 () Bool (= .def_14 |!{$(in_main#0)<k>}.next|))
(define-fun .def_146 () Bool (and .def_127 .def_145))
(define-fun .def_399 () Bool (and .def_146 .def_398))
(define-fun .def_18 () Int (! |!{$(in_main#0)<k#2>}| :next |!{$(in_main#0)<k#2>}.next|))
(define-fun .def_131 () Bool (= .def_18 |!{$(in_main#0)<k#2>}.next|))
(define-fun .def_400 () Bool (and .def_131 .def_399))
(define-fun .def_20 () (Array Int Int) (! |!{$(in_main#0)<array.1>}| :next |!{$(in_main#0)<array.1>}.next|))
(define-fun .def_133 () Bool (= .def_20 |!{$(in_main#0)<array.1>}.next|))
(define-fun .def_401 () Bool (and .def_133 .def_400))
(define-fun .def_22 () (Array Int Int) (! |!{$(in_main#0)<subarray.2>}| :next |!{$(in_main#0)<subarray.2>}.next|))
(define-fun .def_135 () Bool (= .def_22 |!{$(in_main#0)<subarray.2>}.next|))
(define-fun .def_402 () Bool (and .def_135 .def_401))
(define-fun .def_24 () Int (! |!{$(in_main#0)<main.return>}| :next |!{$(in_main#0)<main.return>}.next|))
(define-fun .def_137 () Bool (= .def_24 |!{$(in_main#0)<main.return>}.next|))
(define-fun .def_403 () Bool (and .def_137 .def_402))
(define-fun .def_26 () Int (! |!{$(in_main#0)<M>}| :next |!{$(in_main#0)<M>}.next|))
(define-fun .def_139 () Bool (= .def_26 |!{$(in_main#0)<M>}.next|))
(define-fun .def_404 () Bool (and .def_139 .def_403))
(define-fun .def_28 () Int (! |!{$(in_main#0)<N>}| :next |!{$(in_main#0)<N>}.next|))
(define-fun .def_141 () Bool (= .def_28 |!{$(in_main#0)<N>}.next|))
(define-fun .def_405 () Bool (and .def_141 .def_404))
(define-fun .def_381 () Bool (<= .def_26 .def_14))
(define-fun .def_406 () Bool (and .def_381 .def_405))
(define-fun .def_411 () Bool (and .def_406 .def_410))
(define-fun .def_106 () Bool (= !pc.next 55))
(define-fun .def_408 () Bool (and .def_106 .def_407))
(define-fun .def_383 () (Array Int Int) (store .def_20 .def_14 |!{$(in_main#0)<$(in___VERIFIER_nondet_int#3)<h#<__VERIFIER_nondet_int.return>>>}|))
(define-fun .def_391 () Bool (= |!{$(in_main#0)<array.1>}.next| .def_383))
(define-fun .def_385 () Int (* (- 1) |!{$(in_main#0)<k>}.next|))
(define-fun .def_386 () Int (+ .def_14 .def_385))
(define-fun .def_387 () Bool (= .def_386 (- 1)))
(define-fun .def_388 () Bool (and .def_145 .def_387))
(define-fun .def_16 () Int (! |!{$(in_main#0)<k#1>}| :next |!{$(in_main#0)<k#1>}.next|))
(define-fun .def_129 () Bool (= .def_16 |!{$(in_main#0)<k#1>}.next|))
(define-fun .def_389 () Bool (and .def_129 .def_388))
(define-fun .def_390 () Bool (and .def_131 .def_389))
(define-fun .def_392 () Bool (and .def_390 .def_391))
(define-fun .def_393 () Bool (and .def_135 .def_392))
(define-fun .def_394 () Bool (and .def_137 .def_393))
(define-fun .def_395 () Bool (and .def_139 .def_394))
(define-fun .def_396 () Bool (and .def_141 .def_395))
(define-fun .def_382 () Bool (not .def_381))
(define-fun .def_397 () Bool (and .def_382 .def_396))
(define-fun .def_409 () Bool (and .def_397 .def_408))
(define-fun .def_412 () Bool (or .def_409 .def_411))
(define-fun .def_373 () Bool (= .def_52 75))
(define-fun .def_268 () Bool (= !pc.next 96))
(define-fun .def_377 () Bool (and .def_268 .def_373))
(define-fun .def_360 () Bool (= |!{$(in_main#0)<idx>}.next| (- 1)))
(define-fun .def_359 () Bool (= |!{$(in_main#0)<i>}.next| 0))
(define-fun .def_361 () Bool (and .def_359 .def_360))
(define-fun .def_362 () Bool (and .def_125 .def_361))
(define-fun .def_363 () Bool (and .def_127 .def_362))
(define-fun .def_364 () Bool (and .def_129 .def_363))
(define-fun .def_365 () Bool (and .def_131 .def_364))
(define-fun .def_366 () Bool (and .def_133 .def_365))
(define-fun .def_367 () Bool (and .def_135 .def_366))
(define-fun .def_368 () Bool (and .def_137 .def_367))
(define-fun .def_369 () Bool (and .def_139 .def_368))
(define-fun .def_370 () Bool (and .def_141 .def_369))
(define-fun .def_343 () Bool (<= .def_28 .def_16))
(define-fun .def_371 () Bool (and .def_343 .def_370))
(define-fun .def_378 () Bool (and .def_371 .def_377))
(define-fun .def_375 () Bool (and .def_373 .def_374))
(define-fun .def_345 () (Array Int Int) (store .def_22 .def_16 |!{$(in_main#0)<$(in___VERIFIER_nondet_int#4)<h#<__VERIFIER_nondet_int.return>>>}|))
(define-fun .def_353 () Bool (= |!{$(in_main#0)<subarray.2>}.next| .def_345))
(define-fun .def_347 () Int (* (- 1) |!{$(in_main#0)<k#1>}.next|))
(define-fun .def_348 () Int (+ .def_16 .def_347))
(define-fun .def_349 () Bool (= .def_348 (- 1)))
(define-fun .def_350 () Bool (and .def_146 .def_349))
(define-fun .def_351 () Bool (and .def_131 .def_350))
(define-fun .def_352 () Bool (and .def_133 .def_351))
(define-fun .def_354 () Bool (and .def_352 .def_353))
(define-fun .def_355 () Bool (and .def_137 .def_354))
(define-fun .def_356 () Bool (and .def_139 .def_355))
(define-fun .def_357 () Bool (and .def_141 .def_356))
(define-fun .def_344 () Bool (not .def_343))
(define-fun .def_358 () Bool (and .def_344 .def_357))
(define-fun .def_376 () Bool (and .def_358 .def_375))
(define-fun .def_379 () Bool (or .def_376 .def_378))
(define-fun .def_336 () Bool (= .def_52 113))
(define-fun .def_339 () Bool (and .def_268 .def_336))
(define-fun .def_323 () Bool (= |!{$(in_main#0)<idx>}.next| |%{$(in_main#0)<idx>}#2|))
(define-fun .def_229 () Int (* (- 1) |!{$(in_main#0)<i>}.next|))
(define-fun .def_230 () Int (+ .def_8 .def_229))
(define-fun .def_231 () Bool (= .def_230 (- 1)))
(define-fun .def_324 () Bool (and .def_231 .def_323))
(define-fun .def_325 () Bool (and .def_125 .def_324))
(define-fun .def_326 () Bool (and .def_127 .def_325))
(define-fun .def_327 () Bool (and .def_129 .def_326))
(define-fun .def_328 () Bool (and .def_131 .def_327))
(define-fun .def_329 () Bool (and .def_133 .def_328))
(define-fun .def_330 () Bool (and .def_135 .def_329))
(define-fun .def_331 () Bool (and .def_137 .def_330))
(define-fun .def_332 () Bool (and .def_139 .def_331))
(define-fun .def_333 () Bool (and .def_141 .def_332))
(define-fun .def_306 () Bool (= .def_8 |%{$(in_main#0)<idx>}#2|))
(define-fun .def_283 () Bool (= .def_12 1))
(define-fun .def_308 () Bool (and .def_283 .def_306))
(define-fun .def_305 () Bool (= .def_10 |%{$(in_main#0)<idx>}#2|))
(define-fun .def_300 () Bool (not .def_283))
(define-fun .def_307 () Bool (and .def_300 .def_305))
(define-fun .def_309 () Bool (or .def_307 .def_308))
(define-fun .def_334 () Bool (and .def_309 .def_333))
(define-fun .def_109 () Bool (<= .def_28 .def_18))
(define-fun .def_110 () Bool (not .def_109))
(define-fun .def_284 () Bool (and .def_110 .def_283))
(define-fun .def_299 () Bool (not .def_284))
(define-fun .def_335 () Bool (and .def_299 .def_334))
(define-fun .def_340 () Bool (and .def_335 .def_339))
(define-fun .def_265 () Bool (= !pc.next 113))
(define-fun .def_337 () Bool (and .def_265 .def_336))
(define-fun .def_311 () Bool (= |!{$(in_main#0)<is_sub>}.next| |%{$(in_main#0)<is_sub>}#2|))
(define-fun .def_312 () Bool (and .def_144 .def_311))
(define-fun .def_313 () Bool (and .def_127 .def_312))
(define-fun .def_314 () Bool (and .def_129 .def_313))
(define-fun .def_149 () Int (* (- 1) |!{$(in_main#0)<k#2>}.next|))
(define-fun .def_150 () Int (+ .def_18 .def_149))
(define-fun .def_151 () Bool (= .def_150 (- 1)))
(define-fun .def_315 () Bool (and .def_151 .def_314))
(define-fun .def_316 () Bool (and .def_133 .def_315))
(define-fun .def_317 () Bool (and .def_135 .def_316))
(define-fun .def_318 () Bool (and .def_137 .def_317))
(define-fun .def_319 () Bool (and .def_139 .def_318))
(define-fun .def_320 () Bool (and .def_141 .def_319))
(define-fun .def_294 () Bool (= |%{$(in_main#0)<is_sub>}#2| 0))
(define-fun .def_285 () Int (+ .def_8 .def_18))
(define-fun .def_286 () Int (select .def_20 .def_285))
(define-fun .def_111 () Int (select .def_22 .def_18))
(define-fun .def_287 () Bool (= .def_111 .def_286))
(define-fun .def_288 () Bool (not .def_287))
(define-fun .def_296 () Bool (and .def_288 .def_294))
(define-fun .def_293 () Bool (= .def_12 |%{$(in_main#0)<is_sub>}#2|))
(define-fun .def_295 () Bool (and .def_287 .def_293))
(define-fun .def_297 () Bool (or .def_295 .def_296))
(define-fun .def_321 () Bool (and .def_297 .def_320))
(define-fun .def_322 () Bool (and .def_284 .def_321))
(define-fun .def_338 () Bool (and .def_322 .def_337))
(define-fun .def_341 () Bool (or .def_338 .def_340))
(define-fun .def_263 () Bool (= .def_52 96))
(define-fun .def_177 () Bool (= !pc.next 0))
(define-fun .def_279 () Bool (and .def_177 .def_263))
(define-fun .def_206 () Bool (= .def_10 (- 1)))
(define-fun .def_147 () Bool (and .def_129 .def_146))
(define-fun .def_160 () Bool (and .def_131 .def_147))
(define-fun .def_161 () Bool (and .def_133 .def_160))
(define-fun .def_162 () Bool (and .def_135 .def_161))
(define-fun .def_163 () Bool (and .def_137 .def_162))
(define-fun .def_164 () Bool (and .def_139 .def_163))
(define-fun .def_165 () Bool (and .def_141 .def_164))
(define-fun .def_260 () Bool (and .def_165 .def_206))
(define-fun .def_194 () Bool (<= .def_26 .def_8))
(define-fun .def_261 () Bool (and .def_194 .def_260))
(define-fun .def_280 () Bool (and .def_261 .def_279))
(define-fun .def_173 () Bool (= !pc.next 179))
(define-fun .def_276 () Bool (and .def_173 .def_263))
(define-fun .def_208 () Bool (<= 0 .def_10))
(define-fun .def_209 () Int (ite .def_208 1 0))
(define-fun .def_210 () Bool (= .def_209 0))
(define-fun .def_211 () Bool (not .def_210))
(define-fun .def_184 () Bool (= |!{$(in_main#0)<k#2>}.next| 0))
(define-fun .def_185 () Bool (and .def_147 .def_184))
(define-fun .def_186 () Bool (and .def_133 .def_185))
(define-fun .def_187 () Bool (and .def_135 .def_186))
(define-fun .def_188 () Bool (and .def_137 .def_187))
(define-fun .def_189 () Bool (and .def_139 .def_188))
(define-fun .def_190 () Bool (and .def_141 .def_189))
(define-fun .def_257 () Bool (and .def_190 .def_211))
(define-fun .def_207 () Bool (not .def_206))
(define-fun .def_258 () Bool (and .def_207 .def_257))
(define-fun .def_259 () Bool (and .def_194 .def_258))
(define-fun .def_277 () Bool (and .def_259 .def_276))
(define-fun .def_272 () Bool (= !pc.next 172))
(define-fun .def_273 () Bool (and .def_263 .def_272))
(define-fun .def_244 () Bool (and .def_121 .def_210))
(define-fun .def_245 () Bool (and .def_123 .def_244))
(define-fun .def_246 () Bool (and .def_125 .def_245))
(define-fun .def_247 () Bool (and .def_127 .def_246))
(define-fun .def_248 () Bool (and .def_129 .def_247))
(define-fun .def_249 () Bool (and .def_131 .def_248))
(define-fun .def_250 () Bool (and .def_133 .def_249))
(define-fun .def_251 () Bool (and .def_135 .def_250))
(define-fun .def_252 () Bool (and .def_137 .def_251))
(define-fun .def_253 () Bool (and .def_139 .def_252))
(define-fun .def_254 () Bool (and .def_141 .def_253))
(define-fun .def_255 () Bool (and .def_207 .def_254))
(define-fun .def_256 () Bool (and .def_194 .def_255))
(define-fun .def_274 () Bool (and .def_256 .def_273))
(define-fun .def_269 () Bool (and .def_263 .def_268))
(define-fun .def_232 () Bool (and .def_123 .def_231))
(define-fun .def_233 () Bool (and .def_125 .def_232))
(define-fun .def_234 () Bool (and .def_127 .def_233))
(define-fun .def_235 () Bool (and .def_129 .def_234))
(define-fun .def_236 () Bool (and .def_131 .def_235))
(define-fun .def_237 () Bool (and .def_133 .def_236))
(define-fun .def_238 () Bool (and .def_135 .def_237))
(define-fun .def_239 () Bool (and .def_137 .def_238))
(define-fun .def_240 () Bool (and .def_139 .def_239))
(define-fun .def_241 () Bool (and .def_141 .def_240))
(define-fun .def_198 () Int (* (- 1) .def_26))
(define-fun .def_199 () Int (+ .def_198 .def_28))
(define-fun .def_200 () Int (+ .def_8 .def_199))
(define-fun .def_201 () Bool (<= .def_200 0))
(define-fun .def_203 () Bool (not .def_201))
(define-fun .def_242 () Bool (and .def_203 .def_241))
(define-fun .def_195 () Bool (not .def_194))
(define-fun .def_243 () Bool (and .def_195 .def_242))
(define-fun .def_270 () Bool (and .def_243 .def_269))
(define-fun .def_266 () Bool (and .def_263 .def_265))
(define-fun .def_217 () Bool (= |!{$(in_main#0)<is_sub>}.next| 1))
(define-fun .def_218 () Bool (and .def_144 .def_217))
(define-fun .def_219 () Bool (and .def_127 .def_218))
(define-fun .def_220 () Bool (and .def_129 .def_219))
(define-fun .def_221 () Bool (and .def_184 .def_220))
(define-fun .def_222 () Bool (and .def_133 .def_221))
(define-fun .def_223 () Bool (and .def_135 .def_222))
(define-fun .def_224 () Bool (and .def_137 .def_223))
(define-fun .def_225 () Bool (and .def_139 .def_224))
(define-fun .def_226 () Bool (and .def_141 .def_225))
(define-fun .def_227 () Bool (and .def_201 .def_226))
(define-fun .def_228 () Bool (and .def_195 .def_227))
(define-fun .def_267 () Bool (and .def_228 .def_266))
(define-fun .def_271 () Bool (or .def_267 .def_270))
(define-fun .def_275 () Bool (or .def_271 .def_274))
(define-fun .def_278 () Bool (or .def_275 .def_277))
(define-fun .def_281 () Bool (or .def_278 .def_280))
(define-fun .def_168 () Bool (= .def_52 179))
(define-fun .def_178 () Bool (and .def_168 .def_177))
(define-fun .def_166 () Bool (and .def_109 .def_165))
(define-fun .def_179 () Bool (and .def_166 .def_178))
(define-fun .def_174 () Bool (and .def_168 .def_173))
(define-fun .def_152 () Bool (and .def_147 .def_151))
(define-fun .def_153 () Bool (and .def_133 .def_152))
(define-fun .def_154 () Bool (and .def_135 .def_153))
(define-fun .def_155 () Bool (and .def_137 .def_154))
(define-fun .def_156 () Bool (and .def_139 .def_155))
(define-fun .def_157 () Bool (and .def_141 .def_156))
(define-fun .def_112 () Int (+ .def_10 .def_18))
(define-fun .def_113 () Int (select .def_20 .def_112))
(define-fun .def_114 () Bool (= .def_111 .def_113))
(define-fun .def_115 () Int (ite .def_114 1 0))
(define-fun .def_116 () Bool (= .def_115 0))
(define-fun .def_117 () Bool (not .def_116))
(define-fun .def_158 () Bool (and .def_117 .def_157))
(define-fun .def_159 () Bool (and .def_110 .def_158))
(define-fun .def_175 () Bool (and .def_159 .def_174))
(define-fun .def_170 () Bool (= !pc.next 199))
(define-fun .def_171 () Bool (and .def_168 .def_170))
(define-fun .def_122 () Bool (and .def_116 .def_121))
(define-fun .def_124 () Bool (and .def_122 .def_123))
(define-fun .def_126 () Bool (and .def_124 .def_125))
(define-fun .def_128 () Bool (and .def_126 .def_127))
(define-fun .def_130 () Bool (and .def_128 .def_129))
(define-fun .def_132 () Bool (and .def_130 .def_131))
(define-fun .def_134 () Bool (and .def_132 .def_133))
(define-fun .def_136 () Bool (and .def_134 .def_135))
(define-fun .def_138 () Bool (and .def_136 .def_137))
(define-fun .def_140 () Bool (and .def_138 .def_139))
(define-fun .def_142 () Bool (and .def_140 .def_141))
(define-fun .def_143 () Bool (and .def_110 .def_142))
(define-fun .def_172 () Bool (and .def_143 .def_171))
(define-fun .def_176 () Bool (or .def_172 .def_175))
(define-fun .def_180 () Bool (or .def_176 .def_179))
(define-fun .def_107 () Bool (and .def_55 .def_106))
(define-fun .def_102 () Bool (= |!{$(in_main#0)<N>}.next| |!{$(in_main#0)<$(in___VERIFIER_nondet_int#1)<h#<__VERIFIER_nondet_int.return>>>}|))
(define-fun .def_100 () Bool (= |!{$(in_main#0)<M>}.next| |!{$(in_main#0)<$(in___VERIFIER_nondet_int#0)<h#<__VERIFIER_nondet_int.return>>>}|))
(define-fun .def_98 () Bool (= |!{$(in_main#0)<main.return>}.next| |%{$(in_main#0)<main.return>}#1|))
(define-fun .def_96 () Bool (= |!{$(in_main#0)<subarray.2>}.next| |%{$(in_main#0)<subarray.2>}#1|))
(define-fun .def_94 () Bool (= |!{$(in_main#0)<array.1>}.next| |%{$(in_main#0)<array.1>}#1|))
(define-fun .def_92 () Bool (= |!{$(in_main#0)<k#2>}.next| |%{$(in_main#0)<k#2>}#1|))
(define-fun .def_90 () Bool (= |!{$(in_main#0)<k#1>}.next| |%{$(in_main#0)<k#1>}#1|))
(define-fun .def_88 () Bool (= |!{$(in_main#0)<k>}.next| 0))
(define-fun .def_86 () Bool (= |!{$(in_main#0)<is_sub>}.next| |%{$(in_main#0)<is_sub>}#1|))
(define-fun .def_84 () Bool (= |!{$(in_main#0)<idx>}.next| |%{$(in_main#0)<idx>}#1|))
(define-fun .def_83 () Bool (= |!{$(in_main#0)<i>}.next| |%{$(in_main#0)<i>}#1|))
(define-fun .def_85 () Bool (and .def_83 .def_84))
(define-fun .def_87 () Bool (and .def_85 .def_86))
(define-fun .def_89 () Bool (and .def_87 .def_88))
(define-fun .def_91 () Bool (and .def_89 .def_90))
(define-fun .def_93 () Bool (and .def_91 .def_92))
(define-fun .def_95 () Bool (and .def_93 .def_94))
(define-fun .def_97 () Bool (and .def_95 .def_96))
(define-fun .def_99 () Bool (and .def_97 .def_98))
(define-fun .def_101 () Bool (and .def_99 .def_100))
(define-fun .def_103 () Bool (and .def_101 .def_102))
(define-fun .def_78 () Bool (<= |!{$(in_main#0)<$(in___VERIFIER_nondet_int#1)<h#<__VERIFIER_nondet_int.return>>>}| |!{$(in_main#0)<$(in___VERIFIER_nondet_int#0)<h#<__VERIFIER_nondet_int.return>>>}|))
(define-fun .def_75 () Bool (<= |!{$(in_main#0)<$(in___VERIFIER_nondet_int#0)<h#<__VERIFIER_nondet_int.return>>>}| 0))
(define-fun .def_76 () Bool (not .def_75))
(define-fun .def_73 () Bool (<= |!{$(in_main#0)<$(in___VERIFIER_nondet_int#1)<h#<__VERIFIER_nondet_int.return>>>}| 0))
(define-fun .def_74 () Bool (not .def_73))
(define-fun .def_77 () Bool (and .def_74 .def_76))
(define-fun .def_79 () Bool (and .def_77 .def_78))
(define-fun .def_80 () Int (ite .def_79 1 0))
(define-fun .def_81 () Bool (= .def_80 0))
(define-fun .def_82 () Bool (not .def_81))
(define-fun .def_104 () Bool (and .def_82 .def_103))
(define-fun .def_108 () Bool (and .def_104 .def_107))
(define-fun .def_181 () Bool (or .def_108 .def_180))
(define-fun .def_282 () Bool (or .def_181 .def_281))
(define-fun .def_342 () Bool (or .def_282 .def_341))
(define-fun .def_380 () Bool (or .def_342 .def_379))
(define-fun .def_413 () Bool (! (or .def_380 .def_412) :trans true))
(define-fun .def_192 () Bool (= .def_52 172))
(define-fun .def_182 () Bool (= .def_52 199))
(define-fun .def_414 () Bool (or .def_182 .def_192))
(define-fun .def_415 () Bool (! (not .def_414) :invar-property 0 :invar-property-name ||))
(assert true)
